NAME : gr120.2769.tour
COMMENT : Length = 2769
COMMENT : Found by LKH [Keld Helsgaun] Wed May 29 17:05:39 2013
TYPE : TOUR
DIMENSION : 24
TOUR_SECTION
61
32
28
87
44
46
85
19
79
91
65
13
11
82
53
77
95
37
99
36
55
54
8
116
-1
EOF
